p cnf 86 473
-43 -40 -37 0
-43 -40 -3 0
-43 -6 -3 0
-42 -39 -36 0
-42 -39 -2 0
-42 -5 -2 0
-41 -38 -35 0
-41 -38 -1 0
-41 -4 -1 0
-40 -37 -34 0
-39 -36 -33 0
-38 -35 -32 0
-37 -34 -31 0
-36 -33 -30 0
-35 -32 -29 0
-34 -31 -28 0
-33 -30 -27 0
-32 -29 -26 0
-31 -28 -25 0
-30 -27 -24 0
-29 -26 -23 0
-28 -25 -22 0
-27 -24 -21 0
-26 -23 -20 0
-25 -22 -19 0
-24 -21 -18 0
-23 -20 -17 0
-22 -19 -16 0
-21 -18 -15 0
-20 -17 -14 0
-19 -16 -13 0
-18 -15 -12 0
-17 -14 -11 0
-16 -13 -10 0
-15 -12 -9 0
-14 -11 -8 0
-13 -10 -7 0
-12 -9 -6 0
-11 -8 -5 0
-10 -7 -4 0
-9 -6 -3 0
-8 -5 -2 0
-7 -4 -1 0
1 14 0
1 20 0
1 25 0
1 31 0
1 44 0
1 48 0
1 55 0
1 80 0
2 15 0
2 21 0
2 26 0
2 32 0
2 45 0
2 49 0
2 56 0
2 81 0
3 16 0
3 22 0
3 27 0
3 33 0
3 46 0
3 50 0
3 57 0
3 82 0
4 17 0
4 23 0
4 28 0
4 34 0
4 47 0
4 51 0
4 58 0
4 83 0
5 18 0
5 24 0
5 29 0
5 35 0
5 48 0
5 52 0
5 59 0
5 84 0
6 19 0
6 25 0
6 30 0
6 36 0
6 49 0
6 53 0
6 60 0
6 85 0
7 20 0
7 26 0
7 31 0
7 37 0
7 50 0
7 54 0
7 61 0
7 86 0
8 21 0
8 27 0
8 32 0
8 38 0
8 44 0
8 51 0
8 55 0
8 62 0
9 22 0
9 28 0
9 33 0
9 39 0
9 45 0
9 52 0
9 56 0
9 63 0
10 23 0
10 29 0
10 34 0
10 40 0
10 46 0
10 53 0
10 57 0
10 64 0
11 24 0
11 30 0
11 35 0
11 41 0
11 47 0
11 54 0
11 58 0
11 65 0
12 25 0
12 31 0
12 36 0
12 42 0
12 48 0
12 55 0
12 59 0
12 66 0
13 26 0
13 32 0
13 37 0
13 43 0
13 49 0
13 56 0
13 60 0
13 67 0
14 27 0
14 33 0
14 38 0
14 50 0
14 57 0
14 61 0
14 68 0
15 28 0
15 34 0
15 39 0
15 51 0
15 58 0
15 62 0
15 69 0
16 29 0
16 35 0
16 40 0
16 52 0
16 59 0
16 63 0
16 70 0
17 30 0
17 36 0
17 41 0
17 53 0
17 60 0
17 64 0
17 71 0
18 31 0
18 37 0
18 42 0
18 54 0
18 61 0
18 65 0
18 72 0
19 32 0
19 38 0
19 43 0
19 55 0
19 62 0
19 66 0
19 73 0
20 33 0
20 39 0
20 56 0
20 63 0
20 67 0
20 74 0
21 34 0
21 40 0
21 57 0
21 64 0
21 68 0
21 75 0
22 35 0
22 41 0
22 58 0
22 65 0
22 69 0
22 76 0
23 36 0
23 42 0
23 59 0
23 66 0
23 70 0
23 77 0
24 37 0
24 43 0
24 60 0
24 67 0
24 71 0
24 78 0
25 38 0
25 61 0
25 68 0
25 72 0
25 79 0
26 39 0
26 62 0
26 69 0
26 73 0
26 80 0
27 40 0
27 63 0
27 70 0
27 74 0
27 81 0
28 41 0
28 64 0
28 71 0
28 75 0
28 82 0
29 42 0
29 65 0
29 72 0
29 76 0
29 83 0
30 43 0
30 66 0
30 73 0
30 77 0
30 84 0
31 67 0
31 74 0
31 78 0
31 85 0
32 68 0
32 75 0
32 79 0
32 86 0
33 44 0
33 69 0
33 76 0
33 80 0
34 45 0
34 70 0
34 77 0
34 81 0
35 46 0
35 71 0
35 78 0
35 82 0
36 47 0
36 72 0
36 79 0
36 83 0
37 48 0
37 73 0
37 80 0
37 84 0
38 49 0
38 74 0
38 81 0
38 85 0
39 50 0
39 75 0
39 82 0
39 86 0
40 44 0
40 51 0
40 76 0
40 83 0
41 45 0
41 52 0
41 77 0
41 84 0
42 46 0
42 53 0
42 78 0
42 85 0
43 47 0
43 54 0
43 79 0
43 86 0
44 0
44 46 0
44 57 0
44 62 0
44 69 0
44 74 0
44 85 0
45 0
45 47 0
45 58 0
45 63 0
45 70 0
45 75 0
45 86 0
46 0
46 48 0
46 59 0
46 64 0
46 71 0
46 76 0
47 0
47 49 0
47 60 0
47 65 0
47 72 0
47 77 0
48 0
48 50 0
48 61 0
48 66 0
48 73 0
48 78 0
49 0
49 51 0
49 62 0
49 67 0
49 74 0
49 79 0
50 0
50 52 0
50 63 0
50 68 0
50 75 0
50 80 0
51 0
51 53 0
51 64 0
51 69 0
51 76 0
51 81 0
52 0
52 54 0
52 65 0
52 70 0
52 77 0
52 82 0
53 0
53 55 0
53 66 0
53 71 0
53 78 0
53 83 0
54 0
54 56 0
54 67 0
54 72 0
54 79 0
54 84 0
55 0
55 57 0
55 68 0
55 73 0
55 80 0
55 85 0
56 0
56 58 0
56 69 0
56 74 0
56 81 0
56 86 0
57 0
57 59 0
57 70 0
57 75 0
57 82 0
58 0
58 60 0
58 71 0
58 76 0
58 83 0
59 0
59 61 0
59 72 0
59 77 0
59 84 0
60 0
60 62 0
60 73 0
60 78 0
60 85 0
61 0
61 63 0
61 74 0
61 79 0
61 86 0
62 0
62 64 0
62 75 0
62 80 0
63 0
63 65 0
63 76 0
63 81 0
64 0
64 66 0
64 77 0
64 82 0
65 0
65 67 0
65 78 0
65 83 0
66 0
66 68 0
66 79 0
66 84 0
67 0
67 69 0
67 80 0
67 85 0
68 0
68 70 0
68 81 0
68 86 0
69 0
69 71 0
69 82 0
70 0
70 72 0
70 83 0
71 0
71 73 0
71 84 0
72 0
72 74 0
72 85 0
73 0
73 75 0
73 86 0
74 0
74 76 0
75 0
75 77 0
76 0
76 78 0
77 0
77 79 0
78 0
78 80 0
79 0
79 81 0
80 0
80 82 0
81 0
81 83 0
82 0
82 84 0
83 0
83 85 0
84 0
84 86 0
85 0
86 0
